Name: Ing0405-3
Courses: 79
Rooms: 18
Days: 5
Periods_per_day: 5
Curricula: 57
Min_Max_Daily_Lectures: 2 4
UnavailabilityConstraints: 396
RoomConstraints: 177

COURSES:
c0012 t000 3 3 20 0
c0013 t001 3 3 25 0
c0014 t002 3 2 41 1
c0035 t003 3 3 13 0
c0036 t004 3 3 13 0
c0045 t005 3 3 76 0
c0052 t006 3 3 119 0
c0053 t007 3 3 63 0
c0055 t008 3 3 63 0
c0057 t009 3 3 76 0
c0060 t010 3 3 89 0
c0094 t011 3 3 70 0
c0098 t012 3 3 92 0
c0104 t013 3 3 92 0
c0107 t014 3 3 70 0
c0112 t015 3 3 70 0
c0114 t016 3 3 92 0
c0116 t006 3 3 120 0
c0117 t017 3 3 120 0
c0130 t018 3 2 124 0
c0148 t019 3 3 121 0
c0149 t020 3 3 121 0
c0150 t021 3 3 121 0
c0162 t022 3 3 130 0
c0163 t023 3 2 145 1
c0177 t011 3 3 113 0
c0179 t005 3 3 113 0
c0181 t024 3 3 113 0
c0198 t025 3 3 88 0
c0210 t026 3 3 125 0
c0214 t027 3 3 125 0
c0218 t028 3 3 80 0
c0223 t001 3 3 80 0
c0224 t029 3 3 115 0
c0226 t030 3 3 110 0
c0227 t031 3 3 90 0
c0233 t032 3 3 66 0
c0249 t033 3 3 70 0
c0254 t034 3 3 114 0
c0271 t035 3 3 114 0
c0409 t036 3 3 30 0
c0416 t032 3 3 23 0
c0420 t037 3 3 50 0
c0441 t038 3 3 36 0
c0447 t038 3 3 43 0
c0456 t039 3 3 70 0
c0457 t040 3 3 50 0
c0465 t041 3 3 70 0
c0486 t042 3 2 15 0
c0491 t043 3 2 5 0
c0498 t044 3 3 25 0
c0501 t045 3 3 5 0
c0506 t046 3 2 5 0
c0510 t047 6 4 30 1
c0527 t048 3 3 13 0
c0670 t020 3 3 30 0
c0738 t049 3 2 10 0
c0745 t050 3 3 30 0
c0773 t051 3 2 15 1
c0814 t052 5 4 3 0
c0825 t053 3 3 3 0
c0882 t054 7 1 18 1
c0884 t055 7 1 53 1
c0899 t056 3 3 14 0
c0901 t057 3 3 124 0
c0933 t058 3 3 30 0
c0947 t059 7 1 30 1
c0953 t060 7 1 46 1
c0969 t061 7 1 46 1
c0972 t062 7 1 18 0
c0978 t063 7 1 60 0
c0985 t064 7 1 40 0
c0991 t001 3 3 6 0
c1007 t065 3 3 76 0
c1041 t066 3 2 130 0
c1044 t066 7 1 60 1
c0741 t067 6 4 110 0
c0196 t068 6 4 100 0
c0798 t069 5 4 3 1

ROOMS:
r25 40 1
r36 42 0
r37 42 2
r38 48 0
r31 50 1
r27 55 0
r51 60 2
rB 216 0
rD 216 1
rF 216 0
rG 216 1
rA 312 3
rL 336 1
r50 50 0
r52 60 1
rDS1 80 3
rDS2 60 1
rN 20 1

CURRICULA:
q000 3 c0094 c0107 c0112 
q001 3 c0098 c0104 c0114 
q002 2 c0116 c0117 
q003 3 c0210 c0214 c0226 
q004 3 c0210 c0214 c0163 
q005 4 c0224 c0012 c0013 c0014 
q006 4 c0224 c0012 c0223 c0218 
q007 4 c0224 c0773 c0013 c0014 
q008 2 c0035 c0036 
q009 2 c0441 c0014 
q010 3 c0045 c0057 c1007 
q011 4 c0052 c0053 c0055 c0060 
q012 1 c0741 
q015 3 c0218 c0223 c0224 
q016 3 c0224 c0899 c0773 
q017 2 c0227 c0233 
q018 2 c0227 c0249 
q019 3 c0177 c0179 c0181 
q020 3 c0254 c0271 c0198 
q021 1 c0196 
q022 3 c0130 c0901 c0972 
q023 3 c0130 c0901 c0953 
q024 3 c0130 c0901 c0978 
q025 4 c0148 c0149 c0150 c0882 
q026 4 c0148 c0149 c0150 c0969 
q027 4 c0148 c0149 c0150 c0899 
q028 4 c0148 c0149 c0150 c0884 
q029 4 c0162 c0163 c0947 c1041 
q030 4 c0162 c0163 c0985 c1041 
q031 4 c0162 c0163 c1041 c1044 
q033 4 c0254 c0060 c0052 c0271 
q035 1 c0745 
q036 3 c0456 c0741 c0745 
q037 2 c0456 c0741 
q038 3 c0456 c0465 c0498 
q039 3 c0456 c0457 c0196 
q040 1 c0465 
q041 2 c0465 c0498 
q043 5 c0409 c0670 c0416 c0420 c0249 
q044 4 c0409 c0670 c0233 c0227 
q045 4 c0420 c0933 c0233 c0441 
q046 4 c0420 c0933 c0249 c0227 
q047 1 c0447 
q048 4 c0486 c0738 c0745 c0741 
q049 3 c0486 c0745 c0741 
q050 4 c0486 c0506 c0745 c0741 
q051 2 c0491 c0457 
q052 2 c0498 c0738 
q053 2 c0501 c0457 
q054 4 c0052 c0510 c0117 c0116 
q055 5 c0052 c0510 c0527 c0117 c0116 
q056 3 c0798 c0036 c0035 
q057 3 c0814 c0441 c0014 
q058 4 c0447 c0991 c0441 c0014 
q059 1 c0527 
q060 2 c0233 c0991 
q061 3 c0233 c0825 c0416 

UNAVAILABILITY_CONSTRAINTS:
c0012 0 0 
c0012 0 1 
c0012 0 2 
c0012 0 3 
c0012 0 4 
c0013 0 0 
c0013 0 2 
c0013 1 2 
c0013 2 0 
c0013 2 2 
c0013 3 2 
c0013 4 0 
c0013 4 2 
c0014 3 0 
c0014 3 1 
c0014 3 2 
c0014 3 3 
c0014 3 4 
c0014 4 0 
c0014 4 1 
c0014 4 2 
c0014 4 3 
c0014 4 4 
c0045 0 0 
c0045 0 4 
c0045 1 0 
c0045 1 4 
c0045 2 0 
c0045 3 0 
c0045 4 0 
c0045 4 1 
c0052 0 0 
c0052 0 1 
c0052 0 2 
c0052 1 0 
c0052 1 1 
c0052 1 2 
c0052 1 3 
c0052 1 4 
c0053 2 2 
c0053 2 3 
c0053 2 4 
c0053 3 0 
c0053 3 1 
c0053 3 2 
c0053 3 3 
c0053 3 4 
c0057 0 0 
c0057 0 4 
c0057 1 0 
c0057 1 4 
c0057 2 0 
c0057 3 0 
c0057 4 0 
c0057 4 4 
c0060 0 2 
c0060 0 3 
c0060 1 2 
c0060 1 3 
c0060 4 1 
c0060 4 2 
c0060 4 3 
c0060 4 4 
c0094 0 2 
c0094 1 2 
c0094 2 2 
c0094 3 2 
c0094 4 2 
c0094 4 3 
c0094 4 4 
c0107 0 2 
c0107 0 3 
c0107 0 4 
c0107 3 3 
c0107 3 4 
c0107 4 2 
c0107 4 3 
c0107 4 4 
c0112 3 0 
c0112 3 1 
c0112 3 2 
c0112 3 3 
c0112 3 4 
c0112 4 0 
c0112 4 1 
c0112 4 2 
c0112 4 3 
c0112 4 4 
c0114 0 0 
c0114 1 0 
c0114 2 0 
c0114 3 0 
c0114 3 1 
c0114 3 2 
c0114 3 3 
c0114 3 4 
c0116 0 0 
c0116 0 1 
c0116 0 2 
c0116 1 0 
c0116 1 1 
c0116 1 2 
c0116 1 3 
c0116 1 4 
c0117 0 0 
c0117 0 2 
c0117 0 3 
c0117 0 4 
c0117 1 0 
c0117 1 2 
c0117 1 3 
c0117 1 4 
c0117 2 0 
c0117 2 2 
c0117 2 3 
c0117 2 4 
c0117 3 0 
c0117 3 2 
c0117 3 3 
c0117 3 4 
c0117 4 0 
c0117 4 2 
c0117 4 3 
c0117 4 4 
c0130 0 0 
c0130 0 1 
c0130 0 2 
c0130 0 3 
c0130 0 4 
c0130 1 0 
c0130 1 1 
c0130 1 2 
c0130 1 3 
c0130 3 2 
c0130 4 2 
c0130 4 4 
c0148 0 2 
c0148 1 2 
c0148 1 4 
c0149 0 2 
c0149 1 2 
c0149 1 4 
c0150 0 2 
c0150 1 2 
c0150 1 4 
c0162 3 0 
c0162 3 1 
c0162 3 2 
c0162 3 3 
c0162 3 4 
c0162 4 0 
c0162 4 1 
c0162 4 2 
c0162 4 3 
c0162 4 4 
c0163 3 0 
c0163 3 1 
c0163 3 2 
c0163 3 3 
c0163 3 4 
c0163 4 0 
c0163 4 1 
c0163 4 2 
c0163 4 3 
c0163 4 4 
c0177 0 2 
c0177 1 2 
c0177 2 2 
c0177 3 2 
c0177 4 2 
c0177 4 3 
c0177 4 4 
c0198 1 3 
c0198 1 4 
c0198 2 3 
c0198 2 4 
c0198 4 1 
c0198 4 2 
c0198 4 3 
c0198 4 4 
c0223 0 0 
c0223 0 2 
c0223 1 2 
c0223 2 0 
c0223 2 2 
c0223 3 2 
c0223 4 0 
c0223 4 2 
c0224 1 4 
c0224 2 4 
c0224 3 4 
c0224 4 0 
c0224 4 1 
c0224 4 2 
c0224 4 3 
c0224 4 4 
c0227 0 0 
c0227 0 1 
c0227 0 2 
c0227 0 3 
c0227 4 1 
c0227 4 2 
c0227 4 3 
c0227 4 4 
c0254 0 0 
c0254 0 1 
c0254 0 4 
c0254 4 0 
c0254 4 1 
c0254 4 2 
c0254 4 3 
c0254 4 4 
c0441 0 4 
c0441 1 4 
c0441 2 2 
c0441 2 4 
c0441 3 1 
c0441 3 4 
c0441 4 2 
c0441 4 4 
c0456 0 0 
c0456 0 1 
c0456 0 2 
c0456 0 3 
c0456 0 4 
c0456 4 0 
c0456 4 1 
c0456 4 2 
c0456 4 3 
c0456 4 4 
c0457 3 2 
c0457 3 3 
c0457 3 4 
c0457 4 0 
c0457 4 1 
c0457 4 2 
c0457 4 3 
c0457 4 4 
c0486 0 0 
c0486 0 1 
c0486 0 2 
c0486 0 3 
c0486 0 4 
c0486 3 0 
c0486 3 1 
c0486 3 2 
c0486 3 3 
c0486 3 4 
c0486 4 0 
c0486 4 1 
c0486 4 2 
c0486 4 3 
c0486 4 4 
c0498 0 3 
c0498 0 4 
c0498 1 3 
c0498 1 4 
c0498 2 3 
c0498 2 4 
c0498 3 3 
c0498 3 4 
c0498 4 3 
c0498 4 4 
c0501 0 0 
c0501 0 1 
c0501 0 2 
c0501 0 3 
c0501 0 4 
c0501 1 0 
c0501 4 0 
c0501 4 1 
c0501 4 2 
c0501 4 3 
c0501 4 4 
c0506 0 0 
c0506 0 1 
c0506 0 2 
c0506 0 3 
c0506 0 4 
c0506 1 0 
c0506 1 1 
c0506 1 2 
c0506 1 3 
c0506 1 4 
c0506 4 3 
c0506 4 4 
c0510 0 0 
c0510 0 1 
c0510 0 2 
c0510 4 0 
c0510 4 1 
c0510 4 2 
c0510 4 3 
c0510 4 4 
c0527 0 0 
c0527 0 1 
c0527 0 2 
c0527 0 3 
c0527 0 4 
c0527 4 2 
c0527 4 3 
c0527 4 4 
c0745 0 0 
c0745 1 0 
c0745 2 0 
c0745 3 0 
c0745 4 0 
c0773 2 0 
c0773 2 1 
c0773 2 2 
c0773 2 3 
c0773 2 4 
c0773 3 0 
c0773 3 1 
c0773 3 2 
c0773 3 3 
c0773 3 4 
c0773 4 0 
c0773 4 1 
c0773 4 2 
c0773 4 3 
c0773 4 4 
c0814 0 3 
c0814 0 4 
c0814 1 3 
c0814 1 4 
c0814 2 3 
c0814 2 4 
c0814 3 3 
c0814 3 4 
c0899 1 2 
c0899 1 3 
c0899 1 4 
c0899 2 3 
c0899 2 4 
c0899 3 0 
c0899 3 1 
c0899 3 2 
c0901 3 2 
c0901 4 2 
c0901 4 4 
c0991 0 0 
c0991 0 2 
c0991 1 2 
c0991 2 0 
c0991 2 2 
c0991 3 2 
c0991 4 0 
c0991 4 2 
c1007 0 2 
c1007 1 2 
c1007 1 3 
c1007 2 2 
c1007 2 3 
c1007 3 2 
c1007 3 3 
c1007 4 2 
c1041 1 0 
c1041 1 1 
c1041 1 2 
c1041 1 3 
c1041 1 4 
c1041 3 0 
c1041 3 1 
c1041 3 2 
c1041 3 3 
c1041 3 4 
c1041 4 0 
c1041 4 1 
c1041 4 2 
c1041 4 3 
c1041 4 4 
c0741 2 3 
c0741 2 4 
c0741 3 0 
c0741 3 1 
c0741 3 2 
c0741 3 3 
c0741 3 4 
c0741 4 4 
c0196 0 0 
c0196 0 1 
c0196 4 0 
c0196 4 1 
c0196 4 2 
c0196 4 3 
c0196 4 4 
c0798 0 2 
c0798 1 2 
c0798 2 0 
c0798 2 1 
c0798 2 2 
c0798 2 3 
c0798 2 4 
c0798 3 2 
c0798 4 2 

ROOM_CONSTRAINTS:
c0012 rB
c0012 rDS1
c0013 rG
c0013 rN
c0014 r51
c0014 rN
c0035 r31
c0036 r27
c0036 rDS1
c0045 r27
c0045 rA
c0045 r52
c0052 r37
c0052 r31
c0052 rL
c0053 r31
c0053 r52
c0055 r38
c0055 rG
c0055 rA
c0055 rDS1
c0055 rDS2
c0057 r51
c0060 r25
c0060 r27
c0060 rG
c0094 rA
c0094 rL
c0098 rF
c0098 rDS1
c0104 r31
c0104 rB
c0104 rG
c0104 r50
c0107 r36
c0112 r36
c0112 r37
c0112 r52
c0114 r36
c0114 rA
c0114 rN
c0116 r36
c0116 r37
c0116 r38
c0116 rF
c0117 r38
c0117 r31
c0117 r50
c0117 rDS2
c0130 r36
c0148 r36
c0148 r51
c0148 rF
c0148 rL
c0149 r27
c0149 rF
c0149 rN
c0150 r36
c0150 r31
c0150 rL
c0150 r50
c0150 r52
c0162 r37
c0162 rB
c0162 r50
c0162 r52
c0162 rDS1
c0177 r31
c0179 r27
c0179 r51
c0179 rB
c0179 r50
c0179 r52
c0181 rA
c0198 r51
c0198 r52
c0210 r36
c0210 rA
c0210 rDS1
c0210 rDS2
c0214 r52
c0214 rDS2
c0218 rL
c0218 r50
c0224 rL
c0224 rDS1
c0226 r36
c0226 r38
c0226 rA
c0233 r25
c0233 r50
c0249 r37
c0249 r31
c0249 rL
c0254 r25
c0254 rG
c0254 r52
c0271 r51
c0271 rF
c0271 rN
c0409 rL
c0409 rDS1
c0416 r37
c0416 r38
c0416 r51
c0420 rDS2
c0441 rDS2
c0447 r25
c0447 rF
c0447 rDS1
c0456 r38
c0456 rDS2
c0457 rG
c0457 rA
c0465 rL
c0486 rD
c0486 r52
c0498 rB
c0498 rG
c0506 rB
c0506 r50
c0506 r52
c0506 rDS1
c0527 rD
c0527 rF
c0527 rA
c0527 rN
c0670 r51
c0670 rF
c0670 r52
c0670 rN
c0738 r38
c0738 rB
c0745 r25
c0745 r37
c0745 rB
c0745 rG
c0745 r52
c0773 r36
c0773 r51
c0825 r27
c0882 r36
c0882 r37
c0882 r27
c0884 r38
c0884 r27
c0884 r51
c0884 rDS2
c0899 rN
c0901 r51
c0901 rDS2
c0953 r25
c0953 r37
c0953 r31
c0953 rF
c0969 r27
c0969 rB
c0969 rA
c0969 r52
c0969 rN
c0972 rF
c0985 rDS1
c0985 rN
c0991 r38
c0991 r27
c0991 r51
c0991 rA
c1007 r25
c1007 rF
c1007 rDS1
c0741 r37
c0741 r31
c0741 rN
c0196 rL
c0196 rDS1
c0798 r52
c0798 rDS2

END.
